Traveling Salesman Problem/TSP_generados/Aleatorio1621103617_16.tsp
NAME: Aleatorio1621103617_16.tsp
COMMENT: Randomly generated scenario
TYPE: TSP
DIMENSION: 16
EDGE_WEIGHT_TYPE: ATT
NODE_COORD_SECTION
1 26.11 40.85
2 4.13 34.93
3 29.13 46.99
4 20.83 36.42
5 26.32 13.62
6 43.54 23.8
7 23.75 35.05
8 27.07 32.27
9 6.78 26.54
10 27.88 11.2
11 40.35 36.06
12 38.08 3.61
13 8.2 20.87
14 45.9 2.5
15 36.94 10.87
16 2.77 17.4
