Traveling Salesman Problem/TSP_generados/Aleatorio1621103617_16.opt.tour
NAME: Aleatorio1621103617_16.opt.tour
COMMENT: Optimal solution for Aleatorio1621103617_16 (161.49308665496662)
TYPE: TOUR
DIMENSION: 16
TOUR_SECTION
1 8 7 4 2 9 16 13 5 10 15 12 14 6 11 3
-1
EOF
